c Maximum weighted independent set instances generated from exactcolors.
c scalef: 27183337 .
c An independent set of value > 27183337 defines an improving stable sets for coloring.
p edge 79 156
e 1 2
e 1 4
e 1 15
e 1 17
e 2 3
e 2 14
e 2 16
e 3 6
e 3 15
e 3 19
e 4 5
e 4 14
e 4 18
e 5 8
e 5 17
e 5 21
e 6 7
e 6 16
e 6 20
e 7 10
e 7 19
e 7 23
e 8 9
e 8 18
e 8 22
e 9 12
e 9 21
e 9 25
e 10 11
e 10 20
e 10 24
e 11 13
e 11 23
e 11 26
e 12 13
e 12 22
e 12 26
e 13 24
e 13 25
e 14 28
e 14 30
e 15 27
e 15 29
e 16 28
e 16 32
e 17 27
e 17 31
e 18 30
e 18 34
e 19 29
e 19 33
e 20 32
e 20 36
e 21 31
e 21 35
e 22 34
e 22 38
e 23 33
e 23 37
e 24 36
e 24 39
e 25 35
e 25 39
e 26 37
e 26 38
e 27 41
e 27 43
e 28 40
e 28 42
e 29 41
e 29 45
e 30 40
e 30 44
e 31 43
e 31 47
e 32 42
e 32 46
e 33 45
e 33 49
e 34 44
e 34 48
e 35 47
e 35 51
e 36 46
e 36 50
e 37 49
e 37 52
e 38 48
e 38 52
e 39 50
e 39 51
e 40 54
e 40 56
e 41 53
e 41 55
e 42 54
e 42 58
e 43 53
e 43 57
e 44 56
e 44 60
e 45 55
e 45 59
e 46 58
e 46 62
e 47 57
e 47 61
e 48 60
e 48 64
e 49 59
e 49 63
e 50 62
e 50 65
e 51 61
e 51 65
e 52 63
e 52 64
e 53 67
e 53 69
e 54 66
e 54 68
e 55 67
e 55 71
e 56 66
e 56 70
e 57 69
e 57 73
e 58 68
e 58 72
e 59 71
e 59 75
e 60 70
e 60 74
e 61 73
e 61 77
e 62 72
e 62 76
e 63 75
e 63 78
e 64 74
e 64 78
e 65 76
e 65 77
e 66 79
e 67 79
e 68 79
e 69 79
e 70 79
e 71 79
e 72 79
e 73 79
e 74 79
e 75 79
e 76 79
e 77 79
e 78 79
n 1 1073290
n 2 1073290
n 3 1073290
n 4 1073290
n 5 1073290
n 6 1073290
n 7 1073290
n 8 1073290
n 9 1073290
n 10 1073290
n 11 1073290
n 12 1073290
n 13 1073290
n 14 919963
n 15 919963
n 16 919963
n 17 919963
n 18 919963
n 19 919963
n 20 919963
n 21 919963
n 22 919963
n 23 919963
n 24 919963
n 25 919963
n 26 919963
n 27 788540
n 28 788540
n 29 788540
n 30 788540
n 31 788540
n 32 788540
n 33 788540
n 34 788540
n 35 788540
n 36 788540
n 37 788540
n 38 788540
n 39 788540
n 40 694713
n 41 694713
n 42 694713
n 43 694713
n 44 694713
n 45 628835
n 46 628835
n 47 628835
n 48 628835
n 49 694713
n 50 694713
n 51 694713
n 52 694713
n 53 0
n 54 0
n 55 35934
n 56 71867
n 57 71867
n 58 65878
n 59 532286
n 60 628835
n 61 628835
n 62 562957
n 63 466408
n 64 562957
n 65 562957
n 66 0
n 67 0
n 68 0
n 69 0
n 70 491089
n 71 527024
n 72 491090
n 73 491090
n 74 491090
n 75 394541
n 76 491090
n 77 491090
n 78 491090
n 79 885634
